\ Model obj_copy
\ LP format - for model browsing. Use MPS format to capture full model detail.
\ Signature: 0xeeaa5811fa3db980
Minimize
 
Subject To
 c_e_storage_balance(1)_: H_storage(1) = 400000
 c_u_fix_downhill2(1)_: H_storage(1) - 2 x(1) <= 0
Bounds
 H_storage(1) free
Binaries
 x(1)
End
